InboundTrucks  = 8;
OutboundTrucks = 5;
InboundDoors   = 2;
OutboundDoors  = 1;
ReleaseTime    = [1,2,3,1,3,3,4,1];
UnloadTime     = [15,8,11,13,8,7,15,12];
LoadTime       = [11,11,9,11,8];
TransferTime   = [| 8,7,7,8,4 | 5,8,2,4,7 | 8,7,3,6,5 | 5,2,8,5,8 | 6,2,4,2,4 | 5,3,4,3,6 | 8,2,7,2,5 | 7,6,7,7,4 |];
